NAME: ACTUAL_TOURS/amz0027
TYPE: TOUR
COMMENT: RouteID_027f2bd5-6549-450a-ae6e-ef22a7810ecd
DIMENSION: 134
TOUR_SECTION
66
70
130
11
72
13
12
102
29
23
27
54
117
44
37
49
116
62
111
124
100
94
99
81
133
18
4
120
20
24
61
17
112
134
32
10
3
98
40
113
101
96
50
80
38
91
8
22
125
123
60
9
110
26
88
83
45
59
84
43
126
46
53
89
122
121
5
48
28
1
77
34
107
55
69
36
51
118
58
67
105
86
104
65
128
7
90
30
131
108
39
52
15
109
25
19
106
93
57
97
79
92
87
132
14
56
6
82
119
103
129
114
75
42
35
33
127
74
68
47
63
76
2
41
21
71
31
85
115
95
64
78
73
16
-1
EOF
